c User generated cnf file
p cnf 10 58
6 1 -5 0 
3 -5 9 0 
7 9 -8 0 
5 -10 5 0 
5 -4 6 0 
1 -9 2 0 
2 1 -10 0 
2 9 -10 0 
2 4 -5 0 
5 3 -6 0 
1 1 -10 0 
2 -8 4 0 
9 -10 2 0 
9 -10 7 0 
6 10 -8 0 
3 -10 1 0 
5 -8 7 0 
10 5 -8 0 
7 4 -7 0 
3 4 -10 0 
4 9 -8 0 
5 -2 4 0 
8 6 -2 0 
9 -7 3 0 
10 3 -5 0 
10 7 -6 0 
9 -4 10 0 
5 -8 1 0 
9 6 -10 0 
1 -2 1 0 
10 5 -10 0 
8 -3 10 0 
10 6 -4 0 
1 -3 4 0 
1 -9 9 0 
10 -2 7 0 
10 -2 9 0 
3 8 -3 0 
2 10 -3 0 
5 2 -5 0 
2 8 -4 0 
7 6 -8 0 
7 -6 5 0 
10 7 -7 0 
7 -3 7 0 
1 7 -10 0 
5 -9 5 0 
2 -10 7 0 
8 4 -9 0 
1 -8 1 0 
8 6 -3 0 
8 -3 3 0 
4 -9 8 0 
9 3 -8 0 
9 -8 6 0 
1 7 -6 0 
2 -7 8 0 
10 2 -5 0 
